153
320
40
35
36
67
26
187
162
12
14
389
17
48
142
119
184
61
232
120
106
325
62
104
118
209
66
23
184
79
47
0
241
80
48
0
63
14
61
186
15
25
80
76
85
64
501
134
39
114
20
70
0
91
209
0
231
21
91
46
55
17
51
374
67
99
14
28
148
55
39
26
0
16
134
214
91
73
51
11
16
18
100
279
34
17
205
81
0
121
0
433
59
187
29
33
297
124
40
25
